10
4
247.5
73
42
55
96
45
89
49
77
64
76
20
58
46
40
16
35
36
61
91
100
222.5
17
23
40
75
87
23
19
27
53
16
58
95
57
95
25
56
25
64
64
43
1e+155
36
61
81
78
80
39
74
35
50
46
34
57
76
52
10
78
73
54
35
39
1e+155
30
46
18
87
97
34
39
94
17
91
18
76
56
64
22
63
97
10
36
56
